c "896942.clq"
p edge 120 464
e 1 5
e 1 6
e 1 7
e 1 8
e 1 10
e 1 13
e 1 14
e 1 15
e 1 16
e 1 17
e 1 18
e 1 21
e 1 24
e 1 28
e 1 33
e 1 46
e 1 55
e 1 57
e 1 68
e 1 72
e 1 85
e 1 100
e 1 102
e 1 109
e 1 115
e 2 5
e 2 7
e 2 11
e 2 15
e 2 20
e 2 21
e 2 29
e 2 59
e 2 61
e 2 73
e 2 76
e 2 78
e 2 94
e 2 98
e 3 5
e 3 6
e 3 7
e 3 12
e 3 21
e 3 22
e 3 68
e 3 69
e 3 103
e 4 5
e 4 6
e 5 6
e 5 7
e 5 8
e 5 9
e 5 10
e 5 11
e 5 12
e 5 13
e 5 15
e 5 16
e 5 17
e 5 18
e 5 20
e 5 21
e 5 23
e 5 31
e 5 32
e 5 34
e 5 35
e 5 37
e 5 38
e 5 41
e 5 42
e 5 43
e 5 44
e 5 45
e 5 46
e 5 55
e 5 56
e 5 66
e 5 70
e 5 73
e 5 84
e 5 86
e 5 99
e 5 101
e 5 106
e 5 110
e 5 112
e 5 113
e 5 120
e 6 8
e 6 9
e 6 11
e 6 13
e 6 14
e 6 25
e 6 30
e 6 31
e 6 35
e 6 36
e 6 37
e 6 40
e 6 49
e 6 51
e 6 52
e 6 57
e 6 64
e 6 65
e 6 78
e 6 80
e 6 82
e 6 84
e 6 91
e 6 95
e 6 98
e 6 110
e 6 114
e 7 8
e 7 9
e 7 12
e 7 14
e 7 16
e 7 19
e 7 24
e 7 26
e 7 27
e 7 28
e 7 33
e 7 40
e 7 51
e 7 56
e 7 63
e 7 67
e 7 71
e 7 76
e 7 107
e 7 111
e 7 112
e 8 9
e 8 10
e 8 12
e 8 13
e 8 15
e 8 17
e 8 23
e 8 25
e 8 26
e 8 32
e 8 35
e 8 38
e 8 42
e 8 48
e 8 58
e 8 59
e 8 64
e 8 70
e 8 82
e 8 103
e 8 109
e 8 113
e 8 115
e 9 10
e 9 11
e 9 24
e 9 30
e 9 43
e 9 63
e 9 91
e 9 107
e 10 14
e 10 25
e 10 33
e 10 36
e 10 44
e 10 49
e 10 53
e 10 61
e 10 77
e 10 78
e 10 97
e 10 98
e 11 18
e 11 19
e 11 38
e 11 41
e 11 46
e 11 51
e 11 58
e 11 68
e 11 79
e 11 80
e 11 88
e 11 90
e 11 92
e 11 101
e 11 104
e 11 107
e 12 16
e 12 18
e 12 23
e 12 26
e 12 29
e 12 34
e 12 36
e 12 40
e 12 43
e 12 48
e 12 54
e 12 60
e 12 70
e 12 72
e 12 88
e 12 96
e 12 118
e 12 119
e 13 17
e 13 20
e 13 30
e 13 32
e 13 41
e 13 62
e 13 82
e 14 22
e 14 29
e 14 34
e 14 50
e 14 101
e 14 105
e 15 53
e 15 64
e 15 80
e 15 93
e 15 100
e 15 104
e 16 19
e 16 29
e 16 39
e 16 44
e 16 50
e 16 56
e 16 70
e 16 75
e 16 97
e 16 103
e 17 19
e 17 20
e 17 22
e 17 25
e 17 26
e 17 27
e 17 66
e 17 69
e 17 72
e 17 74
e 17 90
e 17 97
e 17 106
e 18 22
e 18 63
e 18 69
e 18 72
e 18 101
e 19 23
e 19 27
e 19 30
e 19 49
e 19 81
e 19 94
e 20 39
e 20 48
e 20 50
e 20 60
e 20 67
e 20 83
e 20 84
e 20 87
e 21 31
e 21 37
e 21 45
e 21 85
e 21 92
e 21 118
e 22 28
e 22 34
e 22 41
e 22 42
e 22 64
e 22 96
e 23 24
e 23 27
e 23 28
e 23 42
e 24 55
e 24 74
e 24 86
e 25 52
e 26 32
e 26 33
e 26 36
e 26 38
e 26 48
e 26 52
e 26 55
e 26 75
e 26 105
e 27 47
e 27 51
e 27 52
e 27 80
e 27 85
e 27 95
e 28 31
e 28 35
e 28 53
e 28 61
e 28 62
e 28 65
e 28 67
e 28 68
e 28 69
e 28 71
e 28 87
e 28 88
e 28 89
e 29 40
e 29 112
e 29 116
e 30 44
e 30 58
e 30 65
e 30 75
e 30 89
e 30 95
e 31 43
e 31 50
e 32 39
e 32 45
e 32 73
e 32 83
e 33 46
e 33 47
e 33 53
e 33 111
e 34 47
e 34 56
e 34 77
e 34 112
e 35 37
e 35 45
e 35 74
e 35 97
e 35 116
e 36 75
e 37 86
e 38 39
e 38 47
e 38 67
e 39 54
e 39 59
e 39 60
e 39 79
e 39 92
e 40 54
e 40 57
e 40 73
e 40 88
e 40 102
e 40 107
e 41 57
e 41 99
e 42 49
e 42 87
e 42 117
e 43 120
e 44 111
e 44 120
e 45 87
e 46 66
e 46 119
e 47 83
e 47 98
e 49 85
e 50 54
e 50 60
e 50 93
e 50 100
e 50 108
e 51 62
e 51 114
e 52 59
e 52 66
e 52 77
e 52 93
e 52 102
e 52 104
e 52 109
e 52 113
e 53 82
e 56 58
e 56 81
e 57 90
e 57 119
e 58 89
e 58 115
e 59 61
e 59 62
e 60 77
e 61 63
e 61 79
e 61 117
e 62 71
e 62 76
e 62 106
e 62 116
e 63 65
e 63 74
e 63 79
e 63 100
e 63 103
e 63 114
e 64 71
e 64 92
e 65 91
e 67 81
e 68 96
e 68 99
e 68 104
e 68 114
e 69 115
e 69 119
e 70 81
e 70 102
e 71 86
e 71 105
e 74 76
e 74 91
e 74 99
e 74 106
e 76 78
e 76 83
e 76 108
e 78 118
e 78 120
e 79 110
e 81 110
e 83 84
e 83 94
e 84 95
e 84 96
e 84 117
e 85 93
e 86 89
e 86 90
e 86 108
e 89 94
e 89 116
e 97 117
e 100 109
e 102 108
e 102 118
e 103 105
e 105 111
e 105 113
